
  22   10
  10   10   10   10   10   10   10   10   10   10

   0   0   0   0   0   0   0   0   0   0   0   2 2 15 
   1   0   0   0   0   0   0   0   0   0  10   2 21 3 
   3   0   0   0  10   0   0   0   0   0   0   1 4 
   1   0  10   0   0   0   0   0   0   0   0   1 5 
   8   0   0   0  10   0   0   0   0   0   0   1 6 
   1   0  10   0   0   0   0   0   0   0   0   1 7 
  10   0   0   0   0  10   0   0   0   0   0   1 8 
   8   0   0   0   0   0   0   0   0   0  10   1 9 
   8   0   0   0   0   0   0   0   0  10   0   1 10 
   7   0   0   0  10   0   0   0   0   0   0   1 11 
   5   0   0   0   0   0   0   0   0   0  10   1 12 
   6   0   0   0   0  10   0   0   0   0   0   1 13 
   4   0   0   0   0  10   0   0   0   0   0   1 14 
   6   0   0   0   0  10   0   0   0   0   0   1 16 
   4  10   0   0   0   0   0   0   0   0   0   1 16 
   7   0   0   0   0   0  10   0   0   0   0   1 17 
   4   0   0   0   0   0   0   0  10   0   0   1 18 
   2   0   0   0   0   0   0  10   0   0   0   1 19 
   6   0   0   0  10   0   0   0   0   0   0   1 20 
  10   0   0   0   0   0  10   0   0   0   0   1 22
   6   0  10   0   0   0   0   0   0   0   0   1 22
   0   0   0   0   0   0   0   0   0   0   0   0 
